c sat-mutex-lemmas 1 four-bits-ez.lemmas
c my attempted simplification of Peterson's 4-bit alg
c file created by SAT-TO-DIMACS Wed Jul  8 08:17:39 2015
c #56 -> 129
c #55 -> 128
c #54 -> 127
c #53 -> 126
c #52 -> 125
c #51 -> 124
c #50 -> 123
c #49 -> 122
c #48 -> 121
c #47 -> 120
c #46 -> 119
c #45 -> 118
c #44 -> 117
c #43 -> 116
c #42 -> 115
c #41 -> 114
c #40 -> 113
c #39 -> 112
c #38 -> 111
c #37 -> 110
c #36 -> 109
c #35 -> 108
c #34 -> 107
c #33 -> 106
c #32 -> 105
c #31 -> 104
c #30 -> 103
c #29 -> 102
c #28 -> 101
c #27 -> 100
c #26 -> 99
c #25 -> 98
c #24 -> 97
c #23 -> 96
c #22 -> 95
c #21 -> 94
c #20 -> 93
c #19 -> 92
c #18 -> 91
c #17 -> 90
c #16 -> 89
c #15 -> 88
c #14 -> 87
c #13 -> 86
c #12 -> 85
c #11 -> 84
c #10 -> 83
c #9 -> 82
c #8 -> 81
c #7 -> 80
c #6 -> 79
c #5 -> 78
c #4 -> 77
c #3 -> 76
c #2 -> 75
c #1 -> 74
c 001b1 -> 73
c 001a2 -> 72
c 001b2 -> 71
c 001a1 -> 70
c 000B52 -> 69
c 000B51 -> 68
c 000B50 -> 67
c 000B35 -> 66
c 000B34 -> 65
c 000B33 -> 64
c 000B32 -> 63
c 000B31 -> 62
c 000B30 -> 61
c 000a2 -> 60
c 000B13 -> 59
c 000B12 -> 58
c 000B11 -> 57
c 000a1 -> 56
c 000B10 -> 55
c 000B1 -> 54
c 000B0 -> 53
c 000A52 -> 52
c 000A51 -> 51
c 000A50 -> 50
c 000A32 -> 49
c 000A31 -> 48
c 000A30 -> 47
c 000b1 -> 46
c 000A13 -> 45
c 000A12 -> 44
c 000A11 -> 43
c 000b2 -> 42
c 000A10 -> 41
c 000A1 -> 40
c 000A0 -> 39
c 000@ -> 38
c 001B0 -> 37
c 001B1 -> 36
c 001_B5 -> 35
c 001B10 -> 34
c 001B11 -> 33
c 001_B4 -> 32
c 001B12 -> 31
c 001B13 -> 30
c 001_B3 -> 29
c 001B30 -> 28
c 001B31 -> 27
c 001_B2 -> 26
c 001B32 -> 25
c 001B33 -> 24
c 001_B1 -> 23
c 001B34 -> 22
c 001B35 -> 21
c 001_B0 -> 20
c 001B50 -> 19
c 001B51 -> 18
c 001B52 -> 17
c 001A0 -> 16
c 001A1 -> 15
c 001A10 -> 14
c 001_A3 -> 13
c 001A11 -> 12
c 001A12 -> 11
c 001_A2 -> 10
c 001A13 -> 9
c 001A30 -> 8
c 001_A1 -> 7
c 001A31 -> 6
c 001A32 -> 5
c 001_A0 -> 4
c 001A50 -> 3
c 001A51 -> 2
c 001A52 -> 1
p cnf 129 354
 129 128 127 126 125 124 123 122 121 120 119 118 117 116 115 114 113 112 111 110 109 108 107 106 105 104 103 102 101 100 99 98 97 96 95 94 93 92 91 90 89 88 87 86 85 84 83 82 81 80 79 78 77 76 75 74 0
 -71 -129 0
 17 -129 0
 42 -69 0
 -71 -128 0
 18 -128 0
 42 -68 0
 -71 -127 0
 19 -127 0
 42 -67 0
 -71 -126 0
 21 -126 0
 42 -66 0
 -71 -125 0
 22 -125 0
 42 -65 0
 -71 -124 0
 24 -124 0
 42 -64 0
 -71 -123 0
 25 -123 0
 42 -63 0
 -71 -122 0
 27 -122 0
 42 -62 0
 -71 -121 0
 28 -121 0
 42 -61 0
 -71 -120 0
 30 -120 0
 42 -59 0
 -71 -119 0
 31 -119 0
 42 -58 0
 71 -118 0
 33 -118 0
 -42 -57 0
 71 -117 0
 34 -117 0
 -42 -55 0
 71 -116 0
 36 -116 0
 -42 -54 0
 71 -115 0
 37 -115 0
 -42 -53 0
 73 -114 0
 17 -114 0
 -46 -69 0
 -73 -113 0
 18 -113 0
 46 -68 0
 -73 -112 0
 19 -112 0
 46 -67 0
 73 -111 0
 21 -111 0
 -46 -66 0
 73 -110 0
 22 -110 0
 -46 -65 0
 -73 -109 0
 24 -109 0
 46 -64 0
 -73 -108 0
 25 -108 0
 46 -63 0
 -73 -107 0
 27 -107 0
 46 -62 0
 73 -106 0
 28 -106 0
 -46 -61 0
 73 -105 0
 30 -105 0
 -46 -59 0
 -73 -104 0
 31 -104 0
 46 -58 0
 -73 -103 0
 33 -103 0
 46 -57 0
 -73 -102 0
 34 -102 0
 46 -55 0
 73 -101 0
 36 -101 0
 -46 -54 0
 73 -100 0
 37 -100 0
 -46 -53 0
 -72 -99 0
 1 -99 0
 60 -52 0
 -72 -98 0
 2 -98 0
 60 -51 0
 -72 -97 0
 3 -97 0
 60 -50 0
 -72 -96 0
 5 -96 0
 60 -49 0
 -72 -95 0
 6 -95 0
 60 -48 0
 -72 -94 0
 8 -94 0
 60 -47 0
 -72 -93 0
 9 -93 0
 60 -45 0
 -72 -92 0
 11 -92 0
 60 -44 0
 72 -91 0
 12 -91 0
 -60 -43 0
 72 -90 0
 14 -90 0
 -60 -41 0
 72 -89 0
 15 -89 0
 -60 -40 0
 72 -88 0
 16 -88 0
 -60 -39 0
 70 -87 0
 1 -87 0
 -56 -52 0
 -70 -86 0
 2 -86 0
 56 -51 0
 -70 -85 0
 3 -85 0
 56 -50 0
 -70 -84 0
 5 -84 0
 56 -49 0
 -70 -83 0
 6 -83 0
 56 -48 0
 70 -82 0
 8 -82 0
 -56 -47 0
 70 -81 0
 9 -81 0
 -56 -45 0
 -70 -80 0
 11 -80 0
 56 -44 0
 -70 -79 0
 12 -79 0
 56 -43 0
 -70 -78 0
 14 -78 0
 56 -41 0
 70 -77 0
 15 -77 0
 -56 -40 0
 70 -76 0
 16 -76 0
 -56 -39 0
 -17 -75 0
 -18 -75 0
 -19 -75 0
 -21 -75 0
 -22 -75 0
 -24 -75 0
 -25 -75 0
 -27 -75 0
 -28 -75 0
 -30 -75 0
 -31 -75 0
 -33 -75 0
 -34 -75 0
 -36 -75 0
 -37 -75 0
 69 68 67 66 65 64 63 62 61 59 58 57 55 54 53 0
 -1 -74 0
 -2 -74 0
 -3 -74 0
 -5 -74 0
 -6 -74 0
 -8 -74 0
 -9 -74 0
 -11 -74 0
 -12 -74 0
 -14 -74 0
 -15 -74 0
 -16 -74 0
 52 51 50 49 48 47 45 44 43 41 40 39 0
 73 68 64 61 58 54 -46 38 0
 73 -46 -38 0
 -73 68 64 61 58 54 46 38 0
 -73 46 -38 0
 -73 -68 38 0
 -73 -64 38 0
 73 -61 38 0
 -73 -58 38 0
 73 -54 38 0
 72 -60 38 0
 72 52 43 -60 -38 0
 -72 60 38 0
 -72 52 43 60 -38 0
 -72 -52 -38 0
 72 -43 -38 0
 71 69 57 -42 38 0
 71 -42 -38 0
 -71 69 57 42 38 0
 -71 42 -38 0
 -71 -69 38 0
 71 -57 38 0
 70 -56 38 0
 70 51 47 44 40 -56 -38 0
 -70 56 38 0
 -70 51 47 44 40 56 -38 0
 -70 -51 -38 0
 70 -47 -38 0
 -70 -44 -38 0
 70 -40 -38 0
 37 -69 38 0
 17 -69 -38 0
 17 -68 38 0
 18 -68 -38 0
 18 -67 38 0
 19 -67 -38 0
 28 60 -66 38 0
 22 -60 -66 38 0
 21 -66 -38 0
 28 56 -65 38 0
 21 -56 -65 38 0
 22 -65 -38 0
 22 -64 38 0
 24 -64 -38 0
 19 60 -63 38 0
 24 -60 -63 38 0
 25 -63 -38 0
 19 56 -62 38 0
 25 -56 -62 38 0
 27 -62 -38 0
 27 -61 38 0
 28 -61 -38 0
 28 60 -59 38 0
 30 -60 -59 38 0
 30 -59 -38 0
 30 -58 38 0
 31 -58 -38 0
 31 -57 38 0
 33 -57 -38 0
 33 56 -55 38 0
 34 -56 -55 38 0
 34 -55 -38 0
 34 -54 38 0
 36 -54 -38 0
 36 37 -53 38 0
 37 -53 -38 0
 16 -52 -38 0
 1 -52 38 0
 1 -51 -38 0
 2 -51 38 0
 2 -50 -38 0
 3 -50 38 0
 3 42 -49 -38 0
 6 -42 -49 -38 0
 5 -49 38 0
 3 46 -48 -38 0
 5 -46 -48 -38 0
 6 -48 38 0
 6 -47 -38 0
 8 -47 38 0
 8 46 -45 -38 0
 9 -46 -45 -38 0
 9 -45 38 0
 9 -44 -38 0
 11 -44 38 0
 11 -43 -38 0
 12 -43 38 0
 12 42 -41 -38 0
 14 -42 -41 -38 0
 14 -41 38 0
 14 -40 -38 0
 15 -40 38 0
 15 16 -39 -38 0
 16 -39 38 0
 -37 -36 0
 -37 35 0
 -36 35 0
 -35 -34 0
 -35 -33 0
 -34 -33 0
 -35 32 0
 -34 32 0
 -33 32 0
 -32 -31 0
 -32 -30 0
 -31 -30 0
 -32 29 0
 -31 29 0
 -30 29 0
 -29 -28 0
 -29 -27 0
 -28 -27 0
 -29 26 0
 -28 26 0
 -27 26 0
 -26 -25 0
 -26 -24 0
 -25 -24 0
 -26 23 0
 -25 23 0
 -24 23 0
 -23 -22 0
 -23 -21 0
 -22 -21 0
 -23 20 0
 -22 20 0
 -21 20 0
 -20 -19 0
 -20 -18 0
 -19 -18 0
 -20 -17 0
 -19 -17 0
 -18 -17 0
 -16 -15 0
 -16 -14 0
 -16 13 0
 -15 -14 0
 -15 13 0
 -14 13 0
 -13 -12 0
 -13 -11 0
 -12 -11 0
 -13 10 0
 -12 10 0
 -11 10 0
 -10 -9 0
 -10 -8 0
 -9 -8 0
 -10 7 0
 -9 7 0
 -8 7 0
 -7 -6 0
 -7 -5 0
 -6 -5 0
 -7 4 0
 -6 4 0
 -5 4 0
 -4 -3 0
 -4 -2 0
 -3 -2 0
 -4 -1 0
 -3 -1 0
 -2 -1 0
